networks/zoo_96_1188/lower/zoo_96_1188-lower.txt
Number of groups: 43
Flow 5: {1 41 0} {41 43 0} {43 9 0} {9 60 0} 
Flow 29: {2 41 0} {41 27 0} {27 3 0} {3 4 0} {4 55 0} 
Flow 34: {33 19 0} {19 10 0} {10 61 0} 
Flow 65: {4 3 0} {3 54 0} 
Flow 108: {6 5 0} {5 8 0} {8 59 0} 
Flow 160: {7 9 0} {9 43 0} {43 94 0} 
Flow 192: {8 38 0} {38 89 0} 
Flow 230: {9 7 0} {7 42 0} {42 36 0} {36 45 0} {45 44 0} {44 95 0} 
Flow 238: {10 19 0} {19 33 0} {33 32 0} {32 30 0} {30 35 0} {35 21 0} {21 34 0} 
Flow 263: {11 34 0} {34 28 0} {28 25 0} {25 76 0} 
Flow 267: {11 21 0} {21 29 0} {29 80 0} 
Flow 287: {12 18 0} {18 17 0} {17 68 0} 
Flow 312: {34 11 0} 
Flow 341: {15 16 0} {16 17 0} {17 22 0} {22 21 0} {21 27 0} {27 78 0} 
Flow 353: {17 16 0} {16 67 0} 
Flow 354: {17 18 0} {18 69 0} 
Flow 365: {30 31 0} 
Flow 385: {18 12 0} {12 63 0} 
Flow 460: {20 40 0} {40 91 0} 
Flow 474: {21 11 0} {11 62 0} 
Flow 548: {34 21 0} {21 22 0} {22 17 0} {17 13 0} {13 64 0} 
Flow 558: {23 26 0} {26 25 0} {25 28 0} {28 79 0} 
Flow 559: {28 34 0} {34 14 0} {14 29 0} 
Flow 582: {24 23 0} {23 74 0} 
Flow 607: {25 26 0} {26 77 0} 
Flow 718: {29 14 0} {14 34 0} {34 85 0} 
Flow 719: {29 21 0} {21 35 0} {35 86 0} 
Flow 782: {31 30 0} {30 81 0} 
Flow 783: {31 32 0} {32 83 0} 
Flow 813: {26 23 0} {23 24 0} {24 75 0} 
Flow 820: {32 31 0} {31 82 0} 
Flow 921: {36 27 0} {27 41 0} {41 1 0} {1 52 0} 
Flow 936: {19 70 0} 
Flow 981: {27 36 0} {36 42 0} {42 93 0} 
Flow 983: {37 3 0} {3 27 0} {27 45 0} {45 96 0} 
Flow 1016: {39 38 0} {38 8 0} {8 2 0} {2 20 0} {20 7 0} {7 58 0} 
Flow 1038: {40 20 0} {20 2 0} {2 53 0} 
Flow 1085: {35 30 0} {30 32 0} {32 33 0} {33 84 0} 
Flow 1099: {42 7 0} {7 20 0} {20 71 0} 
Flow 1135: {43 41 0} {41 92 0} 
Flow 1144: {44 45 0} {45 27 0} {27 21 0} {21 72 0} 
Flow 1155: {41 2 0} {2 8 0} {8 5 0} {5 56 0} 
Flow 1182: {45 36 0} {36 87 0} 
Time taken running everything: 4 seconds
