networks/zoo_96_1188/zoo_96_1188-lower.sol
<?xml version = "1.0" encoding="UTF-8" standalone="yes"?>
<CPLEXSolution version="1.2">
 <header
   problemName="networks/zoo_96_1188/zoo_96_1188-lower.lp"
   solutionName="incumbent"
   solutionIndex="-1"
   objectiveValue="39"
   solutionTypeValue="3"
   solutionTypeString="primal"
   solutionStatusValue="101"
   solutionStatusString="integer optimal solution"
   solutionMethodString="mip"
   primalFeasible="1"
   dualFeasible="1"
   MIPNodes="0"
   MIPIterations="0"
   writeLevel="3"/>
 <quality
   epInt="1.0000000000000001e-05"
   epRHS="9.9999999999999995e-07"
   maxIntInfeas="0"
   maxPrimalInfeas="0"
   maxX="1"
   maxSlack="1"/>
 <variables>
  <variable name="Y(1,2)" index="1" value="1"/>
  <variable name="Y(2,3)" index="86" value="1"/>
  <variable name="Y(3,7)" index="174" value="1"/>
  <variable name="Y(4,8)" index="259" value="1"/>
  <variable name="Y(5,9)" index="344" value="1"/>
  <variable name="Y(6,16)" index="435" value="1"/>
  <variable name="Y(7,17)" index="520" value="1"/>
  <variable name="Y(8,18)" index="605" value="1"/>
  <variable name="Y(9,20)" index="691" value="1"/>
  <variable name="Y(10,21)" index="776" value="1"/>
  <variable name="Y(11,23)" index="862" value="1"/>
  <variable name="Y(12,25)" index="948" value="1"/>
  <variable name="Y(13,26)" index="1033" value="1"/>
  <variable name="Y(14,27)" index="1118" value="1"/>
  <variable name="Y(15,28)" index="1203" value="1"/>
  <variable name="Y(16,29)" index="1288" value="1"/>
  <variable name="Y(17,30)" index="1373" value="1"/>
  <variable name="Y(18,32)" index="1459" value="1"/>
  <variable name="Y(19,33)" index="1544" value="1"/>
  <variable name="Y(20,34)" index="1629" value="1"/>
  <variable name="Y(21,35)" index="1714" value="1"/>
  <variable name="Y(22,36)" index="1799" value="1"/>
  <variable name="Y(23,38)" index="1885" value="1"/>
  <variable name="Y(24,41)" index="1972" value="1"/>
  <variable name="Y(25,42)" index="2057" value="1"/>
  <variable name="Y(26,43)" index="2142" value="1"/>
  <variable name="Y(27,45)" index="2228" value="1"/>
  <variable name="Y(29,4)" index="2355" value="1"/>
  <variable name="Y(30,5)" index="2440" value="1"/>
  <variable name="Y(34,10)" index="2781" value="1"/>
  <variable name="Y(35,11)" index="2866" value="1"/>
  <variable name="Y(36,12)" index="2951" value="1"/>
  <variable name="Y(37,13)" index="3036" value="1"/>
  <variable name="Y(44,24)" index="3635" value="1"/>
  <variable name="Y(51,31)" index="4230" value="1"/>
  <variable name="Y(58,40)" index="4827" value="1"/>
  <variable name="Y(62,44)" index="5167" value="1"/>
  <variable name="Y(809,19)" index="67890" value="1"/>
  <variable name="Y(921,1)" index="77280" value="1"/>
  <variable name="X(1,41,1)" index="99792" value="1"/>
  <variable name="X(1,52,921)" index="101900" value="1"/>
  <variable name="X(2,8,4)" index="102171" value="1"/>
  <variable name="X(2,20,3)" index="103358" value="1"/>
  <variable name="X(2,41,28)" index="104571" value="1"/>
  <variable name="X(2,53,1)" index="105732" value="1"/>
  <variable name="X(3,4,29)" index="106948" value="1"/>
  <variable name="X(3,27,64)" index="108171" value="1"/>
  <variable name="X(3,54,2)" index="109297" value="1"/>
  <variable name="X(4,3,65)" index="110548" value="1"/>
  <variable name="X(4,55,29)" index="111700" value="1"/>
  <variable name="X(5,8,71)" index="112930" value="1"/>
  <variable name="X(5,56,30)" index="114077" value="1"/>
  <variable name="X(6,5,105)" index="115340" value="1"/>
  <variable name="X(7,9,132)" index="116555" value="1"/>
  <variable name="X(7,20,127)" index="117738" value="1"/>
  <variable name="X(7,42,60)" index="118859" value="1"/>
  <variable name="X(7,58,3)" index="119990" value="1"/>
  <variable name="X(8,2,71)" index="121246" value="1"/>
  <variable name="X(8,5,30)" index="122393" value="1"/>
  <variable name="X(8,38,23)" index="123574" value="1"/>
  <variable name="X(8,59,4)" index="124743" value="1"/>
  <variable name="X(9,7,199)" index="126126" value="1"/>
  <variable name="X(9,43,158)" index="127273" value="1"/>
  <variable name="X(9,60,5)" index="128308" value="1"/>
  <variable name="X(10,19,232)" index="129723" value="1"/>
  <variable name="X(10,61,34)" index="130713" value="1"/>
  <variable name="X(11,21,246)" index="132113" value="1"/>
  <variable name="X(11,34,261)" index="133316" value="1"/>
  <variable name="X(11,62,35)" index="134278" value="1"/>
  <variable name="X(12,18,282)" index="135713" value="1"/>
  <variable name="X(12,63,36)" index="136655" value="1"/>
  <variable name="X(13,64,37)" index="137844" value="1"/>
  <variable name="X(14,29,326)" index="139321" value="1"/>
  <variable name="X(14,34,304)" index="140487" value="1"/>
  <variable name="X(15,16,341)" index="141712" value="1"/>
  <variable name="X(16,17,341)" index="142900" value="1"/>
  <variable name="X(16,67,6)" index="143753" value="1"/>
  <variable name="X(17,13,37)" index="144972" value="1"/>
  <variable name="X(17,16,6)" index="146129" value="1"/>
  <variable name="X(17,18,8)" index="147319" value="1"/>
  <variable name="X(17,22,282)" index="148781" value="1"/>
  <variable name="X(17,68,7)" index="149694" value="1"/>
  <variable name="X(18,12,36)" index="150911" value="1"/>
  <variable name="X(18,17,282)" index="152345" value="1"/>
  <variable name="X(18,69,8)" index="153259" value="1"/>
  <variable name="X(19,10,34)" index="154473" value="1"/>
  <variable name="X(19,33,232)" index="155859" value="1"/>
  <variable name="X(19,70,809)" index="157624" value="1"/>
  <variable name="X(20,2,127)" index="158130" value="1"/>
  <variable name="X(20,7,3)" index="159194" value="1"/>
  <variable name="X(20,40,58)" index="160437" value="1"/>
  <variable name="X(20,71,9)" index="161576" value="1"/>
  <variable name="X(21,11,35)" index="162790" value="1"/>
  <variable name="X(21,22,6)" index="163949" value="1"/>
  <variable name="X(21,27,232)" index="165363" value="1"/>
  <variable name="X(21,29,16)" index="166335" value="1"/>
  <variable name="X(21,34,11)" index="167518" value="1"/>
  <variable name="X(21,35,17)" index="168712" value="1"/>
  <variable name="X(21,72,10)" index="169893" value="1"/>
  <variable name="X(22,17,6)" index="171077" value="1"/>
  <variable name="X(22,21,282)" index="172541" value="1"/>
  <variable name="X(23,24,44)" index="173491" value="1"/>
  <variable name="X(23,26,538)" index="175173" value="1"/>
  <variable name="X(23,74,11)" index="175834" value="1"/>
  <variable name="X(24,23,574)" index="177585" value="1"/>
  <variable name="X(24,75,44)" index="178243" value="1"/>
  <variable name="X(25,26,11)" index="179398" value="1"/>
  <variable name="X(25,28,538)" index="181113" value="1"/>
  <variable name="X(25,76,12)" index="181775" value="1"/>
  <variable name="X(26,23,11)" index="182962" value="1"/>
  <variable name="X(26,25,538)" index="184677" value="1"/>
  <variable name="X(26,77,13)" index="185340" value="1"/>
  <variable name="X(27,3,2)" index="186517" value="1"/>
  <variable name="X(27,21,6)" index="187709" value="1"/>
  <variable name="X(27,36,22)" index="188913" value="1"/>
  <variable name="X(27,41,67)" index="190146" value="1"/>
  <variable name="X(27,45,27)" index="191294" value="1"/>
  <variable name="X(27,78,14)" index="192469" value="1"/>
  <variable name="X(28,25,11)" index="193654" value="1"/>
  <variable name="X(28,34,538)" index="195369" value="1"/>
  <variable name="X(28,79,15)" index="196034" value="1"/>
  <variable name="X(29,14,710)" index="197917" value="1"/>
  <variable name="X(29,21,699)" index="199094" value="1"/>
  <variable name="X(29,80,16)" index="199599" value="1"/>
  <variable name="X(30,31,51)" index="200822" value="1"/>
  <variable name="X(30,32,18)" index="201977" value="1"/>
  <variable name="X(30,35,232)" index="203379" value="1"/>
  <variable name="X(30,81,17)" index="204352" value="1"/>
  <variable name="X(31,30,761)" index="206284" value="1"/>
  <variable name="X(31,32,783)" index="207494" value="1"/>
  <variable name="X(31,82,51)" index="207950" value="1"/>
  <variable name="X(32,30,232)" index="209319" value="1"/>
  <variable name="X(32,31,820)" index="211095" value="1"/>
  <variable name="X(32,33,19)" index="211482" value="1"/>
  <variable name="X(32,83,18)" index="212669" value="1"/>
  <variable name="X(33,19,34)" index="213873" value="1"/>
  <variable name="X(33,32,232)" index="215259" value="1"/>
  <variable name="X(33,84,19)" index="216234" value="1"/>
  <variable name="X(34,11,312)" index="217715" value="1"/>
  <variable name="X(34,14,559)" index="219150" value="1"/>
  <variable name="X(34,21,304)" index="220083" value="1"/>
  <variable name="X(34,28,11)" index="220978" value="1"/>
  <variable name="X(34,85,20)" index="222175" value="1"/>
  <variable name="X(35,21,232)" index="223575" value="1"/>
  <variable name="X(35,30,17)" index="224548" value="1"/>
  <variable name="X(35,86,21)" index="225740" value="1"/>
  <variable name="X(36,27,128)" index="227035" value="1"/>
  <variable name="X(36,42,25)" index="228120" value="1"/>
  <variable name="X(36,45,161)" index="229444" value="1"/>
  <variable name="X(36,87,22)" index="230493" value="1"/>
  <variable name="X(37,3,959)" index="232618" value="1"/>
  <variable name="X(38,8,984)" index="233831" value="1"/>
  <variable name="X(38,89,23)" index="234058" value="1"/>
  <variable name="X(39,38,1014)" index="236237" value="1"/>
  <variable name="X(40,20,1038)" index="237449" value="1"/>
  <variable name="X(40,91,58)" index="237657" value="1"/>
  <variable name="X(41,1,921)" index="239708" value="1"/>
  <variable name="X(41,2,1)" index="239976" value="1"/>
  <variable name="X(41,27,2)" index="241165" value="1"/>
  <variable name="X(41,43,5)" index="242356" value="1"/>
  <variable name="X(41,92,24)" index="243563" value="1"/>
  <variable name="X(42,7,234)" index="244961" value="1"/>
  <variable name="X(42,36,128)" index="246043" value="1"/>
  <variable name="X(42,93,25)" index="247128" value="1"/>
  <variable name="X(43,9,5)" index="248296" value="1"/>
  <variable name="X(43,41,158)" index="249637" value="1"/>
  <variable name="X(43,94,26)" index="250693" value="1"/>
  <variable name="X(44,45,1139)" index="252994" value="1"/>
  <variable name="X(44,95,62)" index="253105" value="1"/>
  <variable name="X(45,27,1139)" index="255370" value="1"/>
  <variable name="X(45,36,1141)" index="256560" value="1"/>
  <variable name="X(45,44,62)" index="256669" value="1"/>
  <variable name="X(45,96,27)" index="257822" value="1"/>
 </variables>
</CPLEXSolution>
